121, 0

121, 0

121, 0

121, 0

121, 0

121, 0

121, 0

121, 0

121, 0

121, 0

121, 0

121, 0

121, 0

121, 0

121, 0

3, 0

121, 0

12, 0

121, 0

121, 0

121, 0

121, 0

121, 0

121, 0

121, 0

121, 0

121, 0

121, 0

4, 0

121, 0

18, 0

121, 0

121, 0

121, 0

121, 0

121, 0

121, 0

121, 0

121, 0

121, 0

121, 0

121, 0

7, 0

121, 0

121, 0

121, 0

121, 0

121, 0

121, 0

121, 0

121, 0

121, 0

121, 0

121, 0

121, 0

121, 0

121, 0

121, 0

121, 0

121, 0

6, 0

121, 0

121, 0

121, 0

121, 0

121, 0

121, 0

121, 0

121, 0

121, 0

121, 0

121, 0

121, 0

121, 0

5, 0

121, 0

121, 0

121, 0

20, 0

121, 0

121, 0

121, 0

121, 0

121, 0

121, 0

121, 0

121, 0

121, 0

121, 0

121, 0

121, 0

121, 0

121, 0

121, 0

121, 0

121, 0

121, 0

121, 0

121, 0

121, 0

121, 0

121, 0

121, 0

121, 0

121, 0

121, 0

121, 0

121, 0

121, 0

121, 0

10, 0

121, 0

121, 0

121, 0

121, 0

121, 0

121, 0

121, 0

11, 0

121, 0

121, 0

121, 0

19, 0

121, 0

121, 0

121, 0

121, 0

121, 0

121, 0

121, 0

121, 0

121, 0

121, 0

121, 0

121, 0

121, 0

121, 0

121, 0

121, 0

14, 0

121, 0

121, 0

121, 0

121, 0

121, 0

121, 0

121, 0

121, 0

121, 0

121, 0

121, 0

121, 0

121, 0

121, 0

121, 0

121, 0

121, 0

121, 0

121, 0

8, 0

2, 0

121, 0

121, 0

121, 0

121, 0

121, 0

121, 0

121, 0

121, 0

121, 0

121, 0

17, 0

121, 0

121, 0

121, 0

121, 0

121, 0

121, 0

121, 0

16, 0

121, 0

13, 0

121, 0

121, 0

121, 0

1, 0

121, 0

121, 0

9, 0

121, 0

121, 0

121, 0

121, 0

121, 0

121, 0

0, 0

121, 0

121, 0

121, 0

121, 0

121, 0

121, 0

121, 0

121, 0

121, 0

121, 0

121, 0

121, 0

121, 0

121, 0

121, 0

121, 0

121, 0

121, 0

121, 0

121, 0

121, 0

121, 0

121, 0

121, 0

121, 0

121, 0

121, 0

121, 0

121, 0

121, 0

121, 0

121, 0

121, 0

121, 0

121, 0

121, 0

121, 0

121, 0

121, 0

121, 0

121, 0

121, 0

121, 0

121, 0

121, 0

121, 0

121, 0

121, 0

121, 0

121, 0

121, 0

121, 0

121, 0

121, 0

121, 0

121, 0

121, 0

121, 0

121, 0

121, 0

121, 0

121, 0

121, 0

121, 0

121, 0

15, 0

121, 0

121, 0

121, 0

121, 0

121, 0

121, 0

121, 0

121, 0

121, 0

121, 0

121, 0

